variable T equal 310 

variable seed equal 608269

variable fName string Run1_IC_Rg_175A_Es_3kT_Ens05kT

log ${fName}.log

units           real
boundary p p p
atom_style      full

neighbor 1.9 bin
neigh_modify every 1 delay 1 check yes 
 
read_data IC_N200_Rg_175A.data extra/special/per/atom 10

angle_style  cosine
angle_coeff   *  2  # K (energy unit) 

bond_style      harmonic
# bond-type, K (energy/distance^2), R0 (distance) 
bond_coeff   1   3   10  
bond_coeff   2   3   10 
bond_coeff   3   1.8   11.22 
 
pair_style lj/cut 25
# atom-typ1, atom-typ2, energy-well, sigma (bead-diameter), cut-off (distance) 
pair_coeff  * * 0.3 10 25

special_bonds lj  1 1 1 angle yes

minimize 1.0e-4 1.0e-6 20000 20000 # force_tol, energy_tol, maxiter, maxeval

# further equilibriate the system before bond formation takes place 
fix fxlan all langevin $T $T 500 ${seed}
fix fxnve all nve 
timestep 1
run 10000

unfix fxlan
unfix fxnve
reset_timestep 0

variable t equal step
variable steps equal 200000000
variable dt_thermo equal 1000000
variable dt_movie equal 1000000  

group rxnSites type 1 3

fix Colvars all colvars N200_Rg_IC_175A.colvars output ${fName}

# fix ID group-ID(atom-types) bond/create Nevery itype jtype Rmin bondtype (prob values = fraction seed) (iparam maxbond newType)
fix bondc rxnSites bond/create/random 20 1 3 12.72 3 prob 1 ${seed} iparam 1 1 jparam 1 3

# fix ID group-ID bond/break Nevery bondtype Rmax keyword values ...
fix bondbr rxnSites bond/break 20 3 12.72 prob 1 ${seed}

variable frmbnd equal f_bondc[2] 
variable brkbnd equal f_bondbr[2] 
fix saveBond all print ${dt_thermo} "$t ${frmbnd} ${brkbnd}" file BondData_${fName}.dat screen no

thermo_style    custom step epair pe ke ebond eangle temp bonds 
thermo          ${dt_thermo}
fix saveThermo all print ${dt_thermo} "$t $(temp) $(ke) $(pe) $(epair) $(ebond) $(eangle) $(bonds)" file Thermo_${fName}.dat title "# Steps Temp KinEng PotEng Epair Ebond Eangle Bonds" screen no

############################ Langevin Dynamics ###############################
fix fxlan all langevin $T $T 500 ${seed}
fix fxnve all nve 

comm_style tiled
fix fxbal all balance 1000 1.05 rcb # load balance for spatially heterogeneous system

timestep 25

dump coor all custom ${dt_movie} traj_${fName}.dump id type mol mass x y z xu yu zu 

run ${steps}
write_restart final_state_${fName}.restart
