variable T equal 310 

variable seed equal 371117

variable fName string Run3_Relax_Es_5kT_Ens_03kT_input

log ${fName}.log

units           real
boundary p p p
atom_style      full

read_restart final_state_Relax_Es_5kT_Ens_03kT.restart 

neighbor 1.9 bin
neigh_modify every 1 delay 1 check yes 

angle_style  cosine
angle_coeff   *  2  # K (energy unit) 

bond_style      harmonic
# bond-type, K (energy/distance^2), R0 (distance) 
bond_coeff   1   3   10  
bond_coeff   2   3   10 
bond_coeff   3   3   11.22 
 
pair_style lj/cut 25
# atom-typ1, atom-typ2, energy-well, sigma (bead-diameter), cut-off (distance) 
pair_coeff  * * 0.18 10 25

special_bonds lj  1 1 1 angle no

variable t equal step
variable steps equal 100000000
variable dt_thermo equal 1000000
variable dt_movie equal 1000000 
variable dt_data equal 10000000 

group rxnSites type 1 3

# fix ID group-ID(atom-types) bond/create Nevery itype jtype Rmin bondtype (prob values = fraction seed) (iparam maxbond newType)
fix bondc rxnSites bond/create/random 20 1 3 12.72 3 prob 1 ${seed} iparam 1 1 jparam 1 3

# fix ID group-ID bond/break Nevery bondtype Rmax keyword values ...
fix bondbr rxnSites bond/break 20 3 12.72 prob 1 ${seed}

variable frmbnd equal f_bondc[2] 
variable brkbnd equal f_bondbr[2] 
fix saveBond all print ${dt_thermo} "$t ${frmbnd} ${brkbnd}" file BondData_${fName}.dat screen no

thermo_style    custom step epair pe ke ebond eangle temp bonds 
thermo          ${dt_thermo}
fix saveThermo all print ${dt_thermo} "$t $(temp) $(ke) $(pe) $(epair) $(ebond) $(eangle) $(bonds)" file Thermo_${fName}.dat title "# Steps Temp KinEng PotEng Epair Ebond Eangle Bonds" screen no

############################ Langevin Dynamics ###############################
fix fxlan all langevin $T $T 500 ${seed}
fix fxnve all nve 

comm_style tiled
fix fxbal all balance 1000 1.1 rcb # load balance for spatially heterogeneous system

timestep 25

restart ${dt_data} ${fName}_tp_*.restart
dump coor all custom ${dt_movie} traj_${fName}.dump id type mol mass x y z xu yu zu 

run ${steps}
write_restart final_state_${fName}.restart
